c User generated cnf file
p cnf 15 16
7 -10 1 0 
4 -14 2 0 
6 -11 14 0 
-4 4 7 0 
15 5 -10 0 
15 -5 14 0 
-6 9 7 0 
-4 3 3 0 
-5 15 3 0 
5 14 -11 0 
1 -9 12 0 
2 11 -9 0 
2 1 -2 0 
1 -3 11 0 
-7 2 15 0 
6 3 -1 0 
